\ Model LargeSI
\ LP format - for model browsing. Use MPS format to capture full model detail.
Maximize
  0.05 X[0,0] + 0.05 X[0,1] + 0.05 X[0,2] + 0.05 X[0,3] + 0.05 X[0,4]
   + 0.05 X[0,5] + 0.05 X[0,6] + 0.05 X[0,7] + 0.05 X[0,8] + 0.05 X[0,9]
   + 0.05 X[0,10] + 0.05 X[0,11] + 0.05 X[0,12] + 0.05 X[0,13]
   + 0.05 X[0,14] + 0.05 X[0,15] + 0.05 X[0,16] + 0.05 X[0,17]
   + 0.05 X[0,18] + 0.05 X[0,19] + 0.05 X[1,0] + 0.05 X[1,1] + 0.05 X[1,2]
   + 0.05 X[1,3] + 0.05 X[1,4] + 0.05 X[1,5] + 0.05 X[1,6] + 0.05 X[1,7]
   + 0.05 X[1,8] + 0.05 X[1,9] + 0.05 X[1,10] + 0.05 X[1,11] + 0.05 X[1,12]
   + 0.05 X[1,13] + 0.05 X[1,14] + 0.05 X[1,15] + 0.05 X[1,16]
   + 0.05 X[1,17] + 0.05 X[1,18] + 0.05 X[1,19] + 0.05 X[2,0] + 0.05 X[2,1]
   + 0.05 X[2,2] + 0.05 X[2,3] + 0.05 X[2,4] + 0.05 X[2,5] + 0.05 X[2,6]
   + 0.05 X[2,7] + 0.05 X[2,8] + 0.05 X[2,9] + 0.05 X[2,10] + 0.05 X[2,11]
   + 0.05 X[2,12] + 0.05 X[2,13] + 0.05 X[2,14] + 0.05 X[2,15]
   + 0.05 X[2,16] + 0.05 X[2,17] + 0.05 X[2,18] + 0.05 X[2,19]
   + 0.05 X[3,0] + 0.05 X[3,1] + 0.05 X[3,2] + 0.05 X[3,3] + 0.05 X[3,4]
   + 0.05 X[3,5] + 0.05 X[3,6] + 0.05 X[3,7] + 0.05 X[3,8] + 0.05 X[3,9]
   + 0.05 X[3,10] + 0.05 X[3,11] + 0.05 X[3,12] + 0.05 X[3,13]
   + 0.05 X[3,14] + 0.05 X[3,15] + 0.05 X[3,16] + 0.05 X[3,17]
   + 0.05 X[3,18] + 0.05 X[3,19] + 0.05 X[4,0] + 0.05 X[4,1] + 0.05 X[4,2]
   + 0.05 X[4,3] + 0.05 X[4,4] + 0.05 X[4,5] + 0.05 X[4,6] + 0.05 X[4,7]
   + 0.05 X[4,8] + 0.05 X[4,9] + 0.05 X[4,10] + 0.05 X[4,11] + 0.05 X[4,12]
   + 0.05 X[4,13] + 0.05 X[4,14] + 0.05 X[4,15] + 0.05 X[4,16]
   + 0.05 X[4,17] + 0.05 X[4,18] + 0.05 X[4,19] + 0.05 X[5,0] + 0.05 X[5,1]
   + 0.05 X[5,2] + 0.05 X[5,3] + 0.05 X[5,4] + 0.05 X[5,5] + 0.05 X[5,6]
   + 0.05 X[5,7] + 0.05 X[5,8] + 0.05 X[5,9] + 0.05 X[5,10] + 0.05 X[5,11]
   + 0.05 X[5,12] + 0.05 X[5,13] + 0.05 X[5,14] + 0.05 X[5,15]
   + 0.05 X[5,16] + 0.05 X[5,17] + 0.05 X[5,18] + 0.05 X[5,19]
   + 0.05 X[6,0] + 0.05 X[6,1] + 0.05 X[6,2] + 0.05 X[6,3] + 0.05 X[6,4]
   + 0.05 X[6,5] + 0.05 X[6,6] + 0.05 X[6,7] + 0.05 X[6,8] + 0.05 X[6,9]
   + 0.05 X[6,10] + 0.05 X[6,11] + 0.05 X[6,12] + 0.05 X[6,13]
   + 0.05 X[6,14] + 0.05 X[6,15] + 0.05 X[6,16] + 0.05 X[6,17]
   + 0.05 X[6,18] + 0.05 X[6,19] + 0.05 X[7,0] + 0.05 X[7,1] + 0.05 X[7,2]
   + 0.05 X[7,3] + 0.05 X[7,4] + 0.05 X[7,5] + 0.05 X[7,6] + 0.05 X[7,7]
   + 0.05 X[7,8] + 0.05 X[7,9] + 0.05 X[7,10] + 0.05 X[7,11] + 0.05 X[7,12]
   + 0.05 X[7,13] + 0.05 X[7,14] + 0.05 X[7,15] + 0.05 X[7,16]
   + 0.05 X[7,17] + 0.05 X[7,18] + 0.05 X[7,19] + 0.05 X[8,0] + 0.05 X[8,1]
   + 0.05 X[8,2] + 0.05 X[8,3] + 0.05 X[8,4] + 0.05 X[8,5] + 0.05 X[8,6]
   + 0.05 X[8,7] + 0.05 X[8,8] + 0.05 X[8,9] + 0.05 X[8,10] + 0.05 X[8,11]
   + 0.05 X[8,12] + 0.05 X[8,13] + 0.05 X[8,14] + 0.05 X[8,15]
   + 0.05 X[8,16] + 0.05 X[8,17] + 0.05 X[8,18] + 0.05 X[8,19]
   + 0.05 X[9,0] + 0.05 X[9,1] + 0.05 X[9,2] + 0.05 X[9,3] + 0.05 X[9,4]
   + 0.05 X[9,5] + 0.05 X[9,6] + 0.05 X[9,7] + 0.05 X[9,8] + 0.05 X[9,9]
   + 0.05 X[9,10] + 0.05 X[9,11] + 0.05 X[9,12] + 0.05 X[9,13]
   + 0.05 X[9,14] + 0.05 X[9,15] + 0.05 X[9,16] + 0.05 X[9,17]
   + 0.05 X[9,18] + 0.05 X[9,19]
Subject To
 Constraint_on_starting_seed: Z[0] + Z[1] + Z[2] + Z[3] + Z[4] + Z[5]
   + Z[6] + Z[7] + Z[8] + Z[9] <= 2
 R1: X[0,0] - Z[2] <= 0
 R2: X[1,0] <= 0
 R3: X[2,0] - Z[0] - Z[1] - Z[2] <= 0
 R4: X[3,0] - Z[0] - Z[2] - Z[5] <= 0
 R5: X[4,0] - Z[3] <= 0
 R6: X[5,0] - Z[0] <= 0
 R7: X[6,0] - Z[1] <= 0
 R8: X[7,0] - Z[5] <= 0
 R9: X[8,0] <= 0
 R10: X[9,0] - Z[2] <= 0
 R11: X[0,1] <= 0
 R12: X[1,1] <= 0
 R13: X[2,1] - Z[0] - Z[1] - Z[2] <= 0
 R14: X[3,1] - Z[0] - Z[2] <= 0
 R15: X[4,1] - Z[3] <= 0
 R16: X[5,1] - Z[0] <= 0
 R17: X[6,1] <= 0
 R18: X[7,1] - Z[5] <= 0
 R19: X[8,1] - Z[3] <= 0
 R20: X[9,1] - Z[2] <= 0
 R21: X[0,2] - Z[2] <= 0
 R22: X[1,2] <= 0
 R23: X[2,2] - Z[1] - Z[2] <= 0
 R24: X[3,2] - Z[2] <= 0
 R25: X[4,2] <= 0
 R26: X[5,2] - Z[0] <= 0
 R27: X[6,2] - Z[1] <= 0
 R28: X[7,2] - Z[5] <= 0
 R29: X[8,2] <= 0
 R30: X[9,2] - Z[2] <= 0
 R31: X[0,3] - Z[1] - Z[2] <= 0
 R32: X[1,3] - Z[0] <= 0
 R33: X[2,3] - Z[0] - Z[1] - Z[2] <= 0
 R34: X[3,3] - Z[0] - Z[2] <= 0
 R35: X[4,3] <= 0
 R36: X[5,3] - Z[0] <= 0
 R37: X[6,3] - Z[1] <= 0
 R38: X[7,3] <= 0
 R39: X[8,3] <= 0
 R40: X[9,3] - Z[2] <= 0
 R41: X[0,4] - Z[1] - Z[2] <= 0
 R42: X[1,4] - Z[0] <= 0
 R43: X[2,4] - Z[0] - Z[1] - Z[2] - Z[6] <= 0
 R44: X[3,4] - Z[2] <= 0
 R45: X[4,4] <= 0
 R46: X[5,4] - Z[0] <= 0
 R47: X[6,4] <= 0
 R48: X[7,4] <= 0
 R49: X[8,4] - Z[3] <= 0
 R50: X[9,4] - Z[2] <= 0
 R51: X[0,5] - Z[1] - Z[2] <= 0
 R52: X[1,5] - Z[0] <= 0
 R53: X[2,5] - Z[0] - Z[2] <= 0
 R54: X[3,5] - Z[0] - Z[2] <= 0
 R55: X[4,5] - Z[3] <= 0
 R56: X[5,5] - Z[0] <= 0
 R57: X[6,5] - Z[1] <= 0
 R58: X[7,5] - Z[5] <= 0
 R59: X[8,5] <= 0
 R60: X[9,5] - Z[2] <= 0
 R61: X[0,6] - Z[2] <= 0
 R62: X[1,6] - Z[0] <= 0
 R63: X[2,6] - Z[0] - Z[1] <= 0
 R64: X[3,6] - Z[2] - Z[5] <= 0
 R65: X[4,6] - Z[3] <= 0
 R66: X[5,6] - Z[0] <= 0
 R67: X[6,6] - Z[1] <= 0
 R68: X[7,6] <= 0
 R69: X[8,6] <= 0
 R70: X[9,6] - Z[2] <= 0
 R71: X[0,7] - Z[2] <= 0
 R72: X[1,7] - Z[0] <= 0
 R73: X[2,7] - Z[0] - Z[1] - Z[2] <= 0
 R74: X[3,7] - Z[0] - Z[2] - Z[5] <= 0
 R75: X[4,7] <= 0
 R76: X[5,7] - Z[0] <= 0
 R77: X[6,7] - Z[1] <= 0
 R78: X[7,7] - Z[5] <= 0
 R79: X[8,7] - Z[3] <= 0
 R80: X[9,7] - Z[2] <= 0
 R81: X[0,8] - Z[2] <= 0
 R82: X[1,8] - Z[0] <= 0
 R83: X[2,8] - Z[0] - Z[2] <= 0
 R84: X[3,8] - Z[2] - Z[5] <= 0
 R85: X[4,8] <= 0
 R86: X[5,8] - Z[0] <= 0
 R87: X[6,8] <= 0
 R88: X[7,8] <= 0
 R89: X[8,8] - Z[3] <= 0
 R90: X[9,8] - Z[2] <= 0
 R91: X[0,9] - Z[1] - Z[2] <= 0
 R92: X[1,9] - Z[0] <= 0
 R93: X[2,9] - Z[0] - Z[2] - Z[6] <= 0
 R94: X[3,9] - Z[0] - Z[2] <= 0
 R95: X[4,9] <= 0
 R96: X[5,9] - Z[0] <= 0
 R97: X[6,9] - Z[1] <= 0
 R98: X[7,9] <= 0
 R99: X[8,9] <= 0
 R100: X[9,9] - Z[2] <= 0
 R101: X[0,10] - Z[2] <= 0
 R102: X[1,10] - Z[0] <= 0
 R103: X[2,10] - Z[1] - Z[2] <= 0
 R104: X[3,10] - Z[0] - Z[2] <= 0
 R105: X[4,10] <= 0
 R106: X[5,10] - Z[0] <= 0
 R107: X[6,10] <= 0
 R108: X[7,10] <= 0
 R109: X[8,10] <= 0
 R110: X[9,10] - Z[2] <= 0
 R111: X[0,11] - Z[1] - Z[2] <= 0
 R112: X[1,11] - Z[0] <= 0
 R113: X[2,11] - Z[0] - Z[2] <= 0
 R114: X[3,11] - Z[0] - Z[2] - Z[5] <= 0
 R115: X[4,11] <= 0
 R116: X[5,11] - Z[0] <= 0
 R117: X[6,11] - Z[1] <= 0
 R118: X[7,11] - Z[5] <= 0
 R119: X[8,11] - Z[3] <= 0
 R120: X[9,11] - Z[2] <= 0
 R121: X[0,12] - Z[2] <= 0
 R122: X[1,12] - Z[0] <= 0
 R123: X[2,12] - Z[0] - Z[2] <= 0
 R124: X[3,12] - Z[0] - Z[2] <= 0
 R125: X[4,12] <= 0
 R126: X[5,12] - Z[0] <= 0
 R127: X[6,12] <= 0
 R128: X[7,12] - Z[5] <= 0
 R129: X[8,12] <= 0
 R130: X[9,12] <= 0
 R131: X[0,13] - Z[1] - Z[2] <= 0
 R132: X[1,13] <= 0
 R133: X[2,13] - Z[0] - Z[6] <= 0
 R134: X[3,13] - Z[0] - Z[2] - Z[5] <= 0
 R135: X[4,13] <= 0
 R136: X[5,13] - Z[0] <= 0
 R137: X[6,13] - Z[1] <= 0
 R138: X[7,13] <= 0
 R139: X[8,13] - Z[3] <= 0
 R140: X[9,13] - Z[2] <= 0
 R141: X[0,14] - Z[2] <= 0
 R142: X[1,14] - Z[0] <= 0
 R143: X[2,14] - Z[0] - Z[1] - Z[2] <= 0
 R144: X[3,14] - Z[2] <= 0
 R145: X[4,14] <= 0
 R146: X[5,14] - Z[0] <= 0
 R147: X[6,14] - Z[1] <= 0
 R148: X[7,14] - Z[5] <= 0
 R149: X[8,14] - Z[3] <= 0
 R150: X[9,14] - Z[2] <= 0
 R151: X[0,15] - Z[1] - Z[2] <= 0
 R152: X[1,15] - Z[0] <= 0
 R153: X[2,15] - Z[0] - Z[2] <= 0
 R154: X[3,15] - Z[0] - Z[2] <= 0
 R155: X[4,15] <= 0
 R156: X[5,15] - Z[0] <= 0
 R157: X[6,15] - Z[1] <= 0
 R158: X[7,15] <= 0
 R159: X[8,15] <= 0
 R160: X[9,15] - Z[2] <= 0
 R161: X[0,16] <= 0
 R162: X[1,16] - Z[0] <= 0
 R163: X[2,16] - Z[0] - Z[2] <= 0
 R164: X[3,16] - Z[0] - Z[2] <= 0
 R165: X[4,16] - Z[3] <= 0
 R166: X[5,16] - Z[0] <= 0
 R167: X[6,16] - Z[1] <= 0
 R168: X[7,16] - Z[5] <= 0
 R169: X[8,16] <= 0
 R170: X[9,16] - Z[2] <= 0
 R171: X[0,17] - Z[1] - Z[2] <= 0
 R172: X[1,17] - Z[0] <= 0
 R173: X[2,17] - Z[1] - Z[2] <= 0
 R174: X[3,17] - Z[2] <= 0
 R175: X[4,17] <= 0
 R176: X[5,17] - Z[0] <= 0
 R177: X[6,17] - Z[1] <= 0
 R178: X[7,17] <= 0
 R179: X[8,17] - Z[3] <= 0
 R180: X[9,17] - Z[2] <= 0
 R181: X[0,18] - Z[2] <= 0
 R182: X[1,18] <= 0
 R183: X[2,18] - Z[1] - Z[2] <= 0
 R184: X[3,18] - Z[0] - Z[2] <= 0
 R185: X[4,18] <= 0
 R186: X[5,18] - Z[0] <= 0
 R187: X[6,18] <= 0
 R188: X[7,18] <= 0
 R189: X[8,18] - Z[3] <= 0
 R190: X[9,18] - Z[2] <= 0
 R191: X[0,19] - Z[2] <= 0
 R192: X[1,19] - Z[0] <= 0
 R193: X[2,19] - Z[0] - Z[1] - Z[2] <= 0
 R194: X[3,19] - Z[0] - Z[2] - Z[5] <= 0
 R195: X[4,19] <= 0
 R196: X[5,19] - Z[0] <= 0
 R197: X[6,19] - Z[1] <= 0
 R198: X[7,19] <= 0
 R199: X[8,19] <= 0
 R200: X[9,19] - Z[2] <= 0
Bounds
 X[0,0] <= 1
 X[0,1] <= 1
 X[0,2] <= 1
 X[0,3] <= 1
 X[0,4] <= 1
 X[0,5] <= 1
 X[0,6] <= 1
 X[0,7] <= 1
 X[0,8] <= 1
 X[0,9] <= 1
 X[0,10] <= 1
 X[0,11] <= 1
 X[0,12] <= 1
 X[0,13] <= 1
 X[0,14] <= 1
 X[0,15] <= 1
 X[0,16] <= 1
 X[0,17] <= 1
 X[0,18] <= 1
 X[0,19] <= 1
 X[1,0] <= 1
 X[1,1] <= 1
 X[1,2] <= 1
 X[1,3] <= 1
 X[1,4] <= 1
 X[1,5] <= 1
 X[1,6] <= 1
 X[1,7] <= 1
 X[1,8] <= 1
 X[1,9] <= 1
 X[1,10] <= 1
 X[1,11] <= 1
 X[1,12] <= 1
 X[1,13] <= 1
 X[1,14] <= 1
 X[1,15] <= 1
 X[1,16] <= 1
 X[1,17] <= 1
 X[1,18] <= 1
 X[1,19] <= 1
 X[2,0] <= 1
 X[2,1] <= 1
 X[2,2] <= 1
 X[2,3] <= 1
 X[2,4] <= 1
 X[2,5] <= 1
 X[2,6] <= 1
 X[2,7] <= 1
 X[2,8] <= 1
 X[2,9] <= 1
 X[2,10] <= 1
 X[2,11] <= 1
 X[2,12] <= 1
 X[2,13] <= 1
 X[2,14] <= 1
 X[2,15] <= 1
 X[2,16] <= 1
 X[2,17] <= 1
 X[2,18] <= 1
 X[2,19] <= 1
 X[3,0] <= 1
 X[3,1] <= 1
 X[3,2] <= 1
 X[3,3] <= 1
 X[3,4] <= 1
 X[3,5] <= 1
 X[3,6] <= 1
 X[3,7] <= 1
 X[3,8] <= 1
 X[3,9] <= 1
 X[3,10] <= 1
 X[3,11] <= 1
 X[3,12] <= 1
 X[3,13] <= 1
 X[3,14] <= 1
 X[3,15] <= 1
 X[3,16] <= 1
 X[3,17] <= 1
 X[3,18] <= 1
 X[3,19] <= 1
 X[4,0] <= 1
 X[4,1] <= 1
 X[4,2] <= 1
 X[4,3] <= 1
 X[4,4] <= 1
 X[4,5] <= 1
 X[4,6] <= 1
 X[4,7] <= 1
 X[4,8] <= 1
 X[4,9] <= 1
 X[4,10] <= 1
 X[4,11] <= 1
 X[4,12] <= 1
 X[4,13] <= 1
 X[4,14] <= 1
 X[4,15] <= 1
 X[4,16] <= 1
 X[4,17] <= 1
 X[4,18] <= 1
 X[4,19] <= 1
 X[5,0] <= 1
 X[5,1] <= 1
 X[5,2] <= 1
 X[5,3] <= 1
 X[5,4] <= 1
 X[5,5] <= 1
 X[5,6] <= 1
 X[5,7] <= 1
 X[5,8] <= 1
 X[5,9] <= 1
 X[5,10] <= 1
 X[5,11] <= 1
 X[5,12] <= 1
 X[5,13] <= 1
 X[5,14] <= 1
 X[5,15] <= 1
 X[5,16] <= 1
 X[5,17] <= 1
 X[5,18] <= 1
 X[5,19] <= 1
 X[6,0] <= 1
 X[6,1] <= 1
 X[6,2] <= 1
 X[6,3] <= 1
 X[6,4] <= 1
 X[6,5] <= 1
 X[6,6] <= 1
 X[6,7] <= 1
 X[6,8] <= 1
 X[6,9] <= 1
 X[6,10] <= 1
 X[6,11] <= 1
 X[6,12] <= 1
 X[6,13] <= 1
 X[6,14] <= 1
 X[6,15] <= 1
 X[6,16] <= 1
 X[6,17] <= 1
 X[6,18] <= 1
 X[6,19] <= 1
 X[7,0] <= 1
 X[7,1] <= 1
 X[7,2] <= 1
 X[7,3] <= 1
 X[7,4] <= 1
 X[7,5] <= 1
 X[7,6] <= 1
 X[7,7] <= 1
 X[7,8] <= 1
 X[7,9] <= 1
 X[7,10] <= 1
 X[7,11] <= 1
 X[7,12] <= 1
 X[7,13] <= 1
 X[7,14] <= 1
 X[7,15] <= 1
 X[7,16] <= 1
 X[7,17] <= 1
 X[7,18] <= 1
 X[7,19] <= 1
 X[8,0] <= 1
 X[8,1] <= 1
 X[8,2] <= 1
 X[8,3] <= 1
 X[8,4] <= 1
 X[8,5] <= 1
 X[8,6] <= 1
 X[8,7] <= 1
 X[8,8] <= 1
 X[8,9] <= 1
 X[8,10] <= 1
 X[8,11] <= 1
 X[8,12] <= 1
 X[8,13] <= 1
 X[8,14] <= 1
 X[8,15] <= 1
 X[8,16] <= 1
 X[8,17] <= 1
 X[8,18] <= 1
 X[8,19] <= 1
 X[9,0] <= 1
 X[9,1] <= 1
 X[9,2] <= 1
 X[9,3] <= 1
 X[9,4] <= 1
 X[9,5] <= 1
 X[9,6] <= 1
 X[9,7] <= 1
 X[9,8] <= 1
 X[9,9] <= 1
 X[9,10] <= 1
 X[9,11] <= 1
 X[9,12] <= 1
 X[9,13] <= 1
 X[9,14] <= 1
 X[9,15] <= 1
 X[9,16] <= 1
 X[9,17] <= 1
 X[9,18] <= 1
 X[9,19] <= 1
 Z[0] <= 1
 Z[1] <= 1
 Z[2] <= 1
 Z[3] <= 1
 Z[4] <= 1
 Z[5] <= 1
 Z[6] <= 1
 Z[7] <= 1
 Z[8] <= 1
 Z[9] <= 1
Generals
 X[0,0] X[0,1] X[0,2] X[0,3] X[0,4] X[0,5] X[0,6] X[0,7] X[0,8] X[0,9]
 X[0,10] X[0,11] X[0,12] X[0,13] X[0,14] X[0,15] X[0,16] X[0,17] X[0,18]
 X[0,19] X[1,0] X[1,1] X[1,2] X[1,3] X[1,4] X[1,5] X[1,6] X[1,7] X[1,8]
 X[1,9] X[1,10] X[1,11] X[1,12] X[1,13] X[1,14] X[1,15] X[1,16] X[1,17]
 X[1,18] X[1,19] X[2,0] X[2,1] X[2,2] X[2,3] X[2,4] X[2,5] X[2,6] X[2,7]
 X[2,8] X[2,9] X[2,10] X[2,11] X[2,12] X[2,13] X[2,14] X[2,15] X[2,16]
 X[2,17] X[2,18] X[2,19] X[3,0] X[3,1] X[3,2] X[3,3] X[3,4] X[3,5] X[3,6]
 X[3,7] X[3,8] X[3,9] X[3,10] X[3,11] X[3,12] X[3,13] X[3,14] X[3,15]
 X[3,16] X[3,17] X[3,18] X[3,19] X[4,0] X[4,1] X[4,2] X[4,3] X[4,4] X[4,5]
 X[4,6] X[4,7] X[4,8] X[4,9] X[4,10] X[4,11] X[4,12] X[4,13] X[4,14]
 X[4,15] X[4,16] X[4,17] X[4,18] X[4,19] X[5,0] X[5,1] X[5,2] X[5,3] X[5,4]
 X[5,5] X[5,6] X[5,7] X[5,8] X[5,9] X[5,10] X[5,11] X[5,12] X[5,13] X[5,14]
 X[5,15] X[5,16] X[5,17] X[5,18] X[5,19] X[6,0] X[6,1] X[6,2] X[6,3] X[6,4]
 X[6,5] X[6,6] X[6,7] X[6,8] X[6,9] X[6,10] X[6,11] X[6,12] X[6,13] X[6,14]
 X[6,15] X[6,16] X[6,17] X[6,18] X[6,19] X[7,0] X[7,1] X[7,2] X[7,3] X[7,4]
 X[7,5] X[7,6] X[7,7] X[7,8] X[7,9] X[7,10] X[7,11] X[7,12] X[7,13] X[7,14]
 X[7,15] X[7,16] X[7,17] X[7,18] X[7,19] X[8,0] X[8,1] X[8,2] X[8,3] X[8,4]
 X[8,5] X[8,6] X[8,7] X[8,8] X[8,9] X[8,10] X[8,11] X[8,12] X[8,13] X[8,14]
 X[8,15] X[8,16] X[8,17] X[8,18] X[8,19] X[9,0] X[9,1] X[9,2] X[9,3] X[9,4]
 X[9,5] X[9,6] X[9,7] X[9,8] X[9,9] X[9,10] X[9,11] X[9,12] X[9,13] X[9,14]
 X[9,15] X[9,16] X[9,17] X[9,18] X[9,19] Z[0] Z[1] Z[2] Z[3] Z[4] Z[5] Z[6]
 Z[7] Z[8] Z[9]
End
